%chk=7cco_0.chk

%nproc=8
%mem=16gb
#p Def2TZVP PBE1PBE maxDisk=200 nosymm Counterpoise=2

Counterpoise

3,1 0,1 3,1
O(Fragment=1) 	2.659000	-3.700000	-0.013000
CA(Fragment=1) 	4.010000	0.508000	-2.307000
CG(Fragment=1) 	2.505000	-7.151000	-2.003000
C(Fragment=1) 	2.113000	-8.855000	0.496000
H(Fragment=1) 	0.042000	-7.182000	-0.533000
N(Fragment=1) 	-0.793000	2.645000	-2.412000
HB3(Fragment=1) 	1.127000	-8.546000	-2.837000
HE3(Fragment=1) 	7.203000	-2.767000	2.018000
CG(Fragment=1) 	-0.984000	-0.195000	-1.813000
CB(Fragment=1) 	5.570000	-4.954000	0.423000
HZ2(Fragment=1) 	10.445000	-6.260000	3.477000
CB(Fragment=1) 	1.881000	-8.529000	-2.019000
N(Fragment=1) 	-0.045000	-8.186000	-0.523000
H(Fragment=1) 	2.376000	-0.420000	-1.363000
O(Fragment=1) 	3.103000	-9.578000	0.581000
HA(Fragment=1) 	-2.140000	2.194000	-0.908000
N(Fragment=1) 	-2.850000	-2.296000	2.489000
CG(Fragment=1) 	6.764000	-5.548000	1.107000
CD(Fragment=1) 	3.191000	-2.360000	-3.550000
HD1(Fragment=1) 	6.567000	-7.648000	0.583000
CH2(Fragment=1) 	9.897000	-4.184000	3.550000
HA(Fragment=1) 	-1.599000	-2.207000	0.820000
C(Fragment=1) 	2.983000	1.189000	-3.187000
N(Fragment=1) 	3.518000	-5.892000	1.552000
OE2(Fragment=1) 	-0.716000	-2.495000	-2.462000
CZ2(Fragment=1) 	9.740000	-5.519000	3.166000
HA(Fragment=1) 	4.642000	1.289000	-1.898000
HB2(Fragment=1) 	5.626000	0.132000	-3.696000
CE2(Fragment=1) 	8.665000	-5.835000	2.349000
OD1(Fragment=1) 	-0.535000	-5.387000	-3.324000
HB2(Fragment=1) 	2.659000	-9.277000	-2.268000
O(Fragment=1) 	-1.108000	3.533000	1.026000
HG3(Fragment=1) 	4.935000	-2.007000	-4.697000
HA(Fragment=1) 	4.726000	-4.395000	2.328000
OD2(Fragment=1) 	-0.002000	-5.929000	1.215000
HE1(Fragment=1) 	8.648000	-7.898000	2.147000
OD1(Fragment=1) 	-0.369000	-4.445000	-0.359000
N(Fragment=1) 	3.323000	-0.139000	-1.208000
HA(Fragment=1) 	0.924000	-10.008000	-0.797000
HZ3(Fragment=1) 	9.129000	-2.189000	3.461000
CZ3(Fragment=1) 	8.986000	-3.204000	3.134000
OE1(Fragment=1) 	3.545000	-3.214000	-2.685000
CD1(Fragment=1) 	7.122000	-6.869000	1.101000
CG(Fragment=1) 	-0.539000	-4.874000	0.813000
N(Fragment=1) 	-3.460000	-4.770000	-2.789000
HB2(Fragment=1) 	5.244000	-5.615000	-0.416000
CB(Fragment=1) 	-1.335000	-4.101000	1.848000
HG2(Fragment=1) 	3.649000	-0.790000	-4.933000
HB3(Fragment=1) 	5.910000	-3.995000	-0.036000
CA(Fragment=1) 	4.356000	-4.717000	1.365000
HB3(Fragment=1) 	-0.702000	0.512000	0.220000
O(Fragment=1) 	-3.235000	-8.379000	-2.831000
HA(Fragment=1) 	-4.402000	-6.320000	-3.812000
HG3(Fragment=1) 	-0.923000	0.181000	-2.860000
CA(Fragment=1) 	1.167000	-8.952000	-0.695000
CD(Fragment=1) 	-0.255000	-1.509000	-1.818000
ND2(Fragment=1) 	-0.180000	-6.282000	-5.365000
CB(Fragment=1) 	4.887000	-0.483000	-3.137000
OE1(Fragment=1) 	0.848000	-1.684000	-1.233000
LA(Fragment=2) 	1.219000	-3.957000	-2.119000
CA(Fragment=1) 	-3.427000	-6.075000	-3.429000
HB2(Fragment=1) 	-2.625000	-7.031000	-5.215000
C(Fragment=1) 	-3.070000	-7.217000	-2.480000
H(Fragment=1) 	-2.594000	-4.303000	-2.595000
C(Fragment=1) 	-3.320000	-3.382000	0.373000
CB(Fragment=1) 	-2.480000	-6.074000	-4.676000
CA(Fragment=1) 	-2.219000	-2.927000	1.335000
HB3(Fragment=1) 	-2.799000	-5.249000	-5.346000
C(Fragment=1) 	3.535000	-3.551000	0.848000
CG(Fragment=1) 	4.171000	-1.397000	-4.162000
HB2(Fragment=1) 	-0.620000	-3.712000	2.595000
HB2(Fragment=1) 	0.651000	0.934000	-0.887000
C(Fragment=1) 	-0.536000	3.291000	-0.040000
HD21(Fragment=1) 	-0.566000	-6.702000	-6.198000
O(Fragment=1) 	1.786000	0.965000	-3.078000
HD22(Fragment=1) 	0.796000	-6.119000	-5.275000
O(Fragment=1) 	-4.147000	-4.244000	0.710000
HB3(Fragment=1) 	5.474000	-1.114000	-2.423000
H(Fragment=1) 	2.831000	-6.069000	0.863000
NE1(Fragment=1) 	8.257000	-7.042000	1.854000
CG(Fragment=1) 	-1.001000	-5.879000	-4.378000
H(Fragment=1) 	-3.057000	-2.893000	3.258000
HG2(Fragment=1) 	-2.052000	-0.377000	-1.596000
CE3(Fragment=1) 	7.905000	-3.529000	2.309000
CB(Fragment=1) 	-0.451000	0.863000	-0.800000
HH2(Fragment=1) 	10.736000	-3.896000	4.170000
OD1(Fragment=1) 	1.906000	-6.177000	-1.493000
OE2(Fragment=1) 	1.972000	-2.360000	-3.884000
OD2(Fragment=1) 	3.558000	-6.996000	-2.680000
CA(Fragment=1) 	-1.066000	2.254000	-1.041000
HB3(Fragment=1) 	-2.003000	-4.831000	2.373000
H(Fragment=1) 	-0.187000	2.025000	-2.913000
CD2(Fragment=1) 	7.735000	-4.858000	1.907000

