%chk=7cco_0.chk

%nproc=8
%mem=16gb
#p Def2TZVP PBE1PBE maxDisk=200 nosymm Counterpoise=2

Counterpoise

! Num Residues = 11
! Residue List = 10:ILE, 11:GLU, 8:GLY, 7:ASP, 9:TRP, 14:GLU, 3:ASP, 5:ASN, 6:ASN, 4:THR, 101:LA, 

3,1 0,1 3,1
O(Fragment=1) 	4.444000	-6.561000	3.502000		! 8 GLY
CA(Fragment=1) 	4.356000	-4.717000	1.365000		! 9 TRP
OE1(Fragment=1) 	3.545000	-3.214000	-2.685000		! 11 GLU
HG21(Fragment=1) 	-6.083000	-0.702000	-1.077000		! 4 THR
N(Fragment=1) 	-3.460000	-4.770000	-2.789000		! 5 ASN
N(Fragment=1) 	-0.793000	2.645000	-2.412000		! 14 GLU
OD1(Fragment=1) 	1.906000	-6.177000	-1.493000		! 7 ASP
CA(Fragment=1) 	3.146000	-1.125000	1.040000		! 10 ILE
N(Fragment=1) 	1.825000	-7.977000	1.475000		! 8 GLY
C(Fragment=1) 	3.607000	-6.708000	2.612000		! 8 GLY
CG2(Fragment=1) 	1.922000	0.903000	1.845000		! 10 ILE
C(Fragment=1) 	-3.070000	-7.217000	-2.480000		! 5 ASN
CG(Fragment=1) 	-0.539000	-4.874000	0.813000		! 3 ASP
HG13(Fragment=1) 	2.345000	-0.197000	4.332000		! 10 ILE
HD11(Fragment=1) 	1.019000	-2.418000	4.206000		! 10 ILE
HB3(Fragment=1) 	-0.702000	0.512000	0.220000		! 14 GLU
O(Fragment=1) 	-5.697000	-4.639000	-2.827000		! 4 THR
O(Fragment=1) 	-3.235000	-8.379000	-2.831000		! 5 ASN
HB2(Fragment=1) 	-0.620000	-3.712000	2.595000		! 3 ASP
HH2(Fragment=1) 	10.736000	-3.896000	4.170000		! 9 TRP
CB(Fragment=1) 	-2.480000	-6.074000	-4.676000		! 5 ASN
HB3(Fragment=1) 	-3.922000	-9.475000	-0.661000		! 6 ASN
OE1(Fragment=1) 	0.848000	-1.684000	-1.233000		! 14 GLU
H(Fragment=1) 	-2.701000	-2.132000	-1.147000		! 4 THR
C(Fragment=1) 	-1.242000	-8.759000	-0.270000		! 6 ASN
HA(Fragment=1) 	-5.450000	-2.946000	-1.025000		! 4 THR
H(Fragment=1) 	1.032000	-7.351000	1.361000		! 8 GLY
C(Fragment=1) 	2.983000	1.189000	-3.187000		! 11 GLU
HB(Fragment=1) 	-5.675000	-1.853000	-3.259000		! 4 THR
HB3(Fragment=1) 	5.910000	-3.995000	-0.036000		! 9 TRP
O(Fragment=1) 	2.659000	-3.700000	-0.013000		! 9 TRP
HB2(Fragment=1) 	-4.674000	-8.006000	0.036000		! 6 ASN
NE1(Fragment=1) 	8.257000	-7.042000	1.854000		! 9 TRP
HG3(Fragment=1) 	4.935000	-2.007000	-4.697000		! 11 GLU
OG1(Fragment=1) 	-3.660000	-1.346000	-3.318000		! 4 THR
CG(Fragment=1) 	-3.802000	-9.353000	1.475000		! 6 ASN
CD(Fragment=1) 	-0.255000	-1.509000	-1.818000		! 14 GLU
CA(Fragment=1) 	-3.427000	-6.075000	-3.429000		! 5 ASN
HA(Fragment=1) 	-1.599000	-2.207000	0.820000		! 3 ASP
ND2(Fragment=1) 	-0.180000	-6.282000	-5.365000		! 5 ASN
CD1(Fragment=1) 	7.122000	-6.869000	1.101000		! 9 TRP
CD2(Fragment=1) 	7.735000	-4.858000	1.907000		! 9 TRP
HB2(Fragment=1) 	-2.625000	-7.031000	-5.215000		! 5 ASN
HD21(Fragment=1) 	-0.566000	-6.702000	-6.198000		! 5 ASN
HZ3(Fragment=1) 	9.129000	-2.189000	3.461000		! 9 TRP
CG1(Fragment=1) 	2.463000	-0.940000	3.502000		! 10 ILE
OD2(Fragment=1) 	-0.002000	-5.929000	1.215000		! 3 ASP
CA(Fragment=1) 	2.616000	-7.836000	2.693000		! 8 GLY
CB(Fragment=1) 	-3.804000	-8.683000	0.100000		! 6 ASN
O(Fragment=1) 	-4.147000	-4.244000	0.710000		! 3 ASP
OD1(Fragment=1) 	-3.719000	-10.579000	1.598000		! 6 ASN
LA(Fragment=2) 	1.219000	-3.957000	-2.119000		! 101 LA
HD12(Fragment=1) 	0.281000	-1.055000	3.304000		! 10 ILE
CB(Fragment=1) 	2.941000	-0.188000	2.230000		! 10 ILE
HG21(Fragment=1) 	0.907000	0.480000	1.748000		! 10 ILE
HB2(Fragment=1) 	2.659000	-9.277000	-2.268000		! 7 ASP
HE3(Fragment=1) 	7.203000	-2.767000	2.018000		! 9 TRP
N(Fragment=1) 	-3.401000	-2.777000	-0.825000		! 4 THR
CB(Fragment=1) 	-1.335000	-4.101000	1.848000		! 3 ASP
N(Fragment=1) 	3.812000	-2.357000	1.392000		! 10 ILE
HG22(Fragment=1) 	-5.347000	0.430000	-2.261000		! 4 THR
H(Fragment=1) 	-3.057000	-2.893000	3.258000		! 3 ASP
HA(Fragment=1) 	4.726000	-4.395000	2.328000		! 9 TRP
CB(Fragment=1) 	5.570000	-4.954000	0.423000		! 9 TRP
HG23(Fragment=1) 	-4.341000	-0.264000	-0.946000		! 4 THR
CE3(Fragment=1) 	7.905000	-3.529000	2.309000		! 9 TRP
HB2(Fragment=1) 	5.244000	-5.615000	-0.416000		! 9 TRP
HD22(Fragment=1) 	0.796000	-6.119000	-5.275000		! 5 ASN
H(Fragment=1) 	-2.498000	-5.944000	-1.011000		! 6 ASN
CE2(Fragment=1) 	8.665000	-5.835000	2.349000		! 9 TRP
HG2(Fragment=1) 	3.649000	-0.790000	-4.933000		! 11 GLU
CB(Fragment=1) 	-0.451000	0.863000	-0.800000		! 14 GLU
C(Fragment=1) 	2.113000	-8.855000	0.496000		! 7 ASP
HE1(Fragment=1) 	8.648000	-7.898000	2.147000		! 9 TRP
C(Fragment=1) 	-3.320000	-3.382000	0.373000		! 3 ASP
CG(Fragment=1) 	-1.001000	-5.879000	-4.378000		! 5 ASN
CA(Fragment=1) 	-2.219000	-2.927000	1.335000		! 3 ASP
CA(Fragment=1) 	-1.066000	2.254000	-1.041000		! 14 GLU
N(Fragment=1) 	-2.850000	-2.296000	2.489000		! 3 ASP
O(Fragment=1) 	-1.108000	3.533000	1.026000		! 14 GLU
OD1(Fragment=1) 	-0.369000	-4.445000	-0.359000		! 3 ASP
HB3(Fragment=1) 	-2.799000	-5.249000	-5.346000		! 5 ASN
HB(Fragment=1) 	3.906000	0.301000	2.496000		! 10 ILE
OE2(Fragment=1) 	-0.716000	-2.495000	-2.462000		! 14 GLU
CZ3(Fragment=1) 	8.986000	-3.204000	3.134000		! 9 TRP
CG(Fragment=1) 	-0.984000	-0.195000	-1.813000		! 14 GLU
ND2(Fragment=1) 	-3.888000	-8.525000	2.539000		! 6 ASN
O(Fragment=1) 	-1.318000	-9.985000	-0.142000		! 6 ASN
CB(Fragment=1) 	-4.818000	-1.681000	-2.567000		! 4 THR
HG2(Fragment=1) 	-2.052000	-0.377000	-1.596000		! 14 GLU
HG12(Fragment=1) 	3.269000	-1.629000	3.835000		! 10 ILE
HD22(Fragment=1) 	-3.870000	-8.946000	3.444000		! 6 ASN
C(Fragment=1) 	-0.536000	3.291000	-0.040000		! 14 GLU
HA(Fragment=1) 	0.924000	-10.008000	-0.797000		! 7 ASP
H(Fragment=1) 	2.376000	-0.420000	-1.363000		! 11 GLU
O(Fragment=1) 	5.137000	-0.114000	0.114000		! 10 ILE
CG(Fragment=1) 	6.764000	-5.548000	1.107000		! 9 TRP
HG3(Fragment=1) 	-0.923000	0.181000	-2.860000		! 14 GLU
N(Fragment=1) 	3.323000	-0.139000	-1.208000		! 11 GLU
H(Fragment=1) 	-2.594000	-4.303000	-2.595000		! 5 ASN
CB(Fragment=1) 	4.887000	-0.483000	-3.137000		! 11 GLU
O(Fragment=1) 	1.786000	0.965000	-3.078000		! 11 GLU
H(Fragment=1) 	0.042000	-7.182000	-0.533000		! 7 ASP
N(Fragment=1) 	3.518000	-5.892000	1.552000		! 9 TRP
HA(Fragment=1) 	-4.402000	-6.320000	-3.812000		! 5 ASN
CB(Fragment=1) 	1.881000	-8.529000	-2.019000		! 7 ASP
HD1(Fragment=1) 	6.567000	-7.648000	0.583000		! 9 TRP
CG(Fragment=1) 	2.505000	-7.151000	-2.003000		! 7 ASP
CD1(Fragment=1) 	1.159000	-1.726000	3.345000		! 10 ILE
OE2(Fragment=1) 	1.972000	-2.360000	-3.884000		! 11 GLU
HG1(Fragment=1) 	-3.850000	-0.520000	-3.801000		! 4 THR
HB2(Fragment=1) 	5.626000	0.132000	-3.696000		! 11 GLU
C(Fragment=1) 	-4.625000	-4.154000	-2.493000		! 4 THR
HB3(Fragment=1) 	5.474000	-1.114000	-2.423000		! 11 GLU
H(Fragment=1) 	2.831000	-6.069000	0.863000		! 9 TRP
HA(Fragment=1) 	-2.140000	2.194000	-0.908000		! 14 GLU
HG22(Fragment=1) 	1.894000	1.689000	2.627000		! 10 ILE
HA2(Fragment=1) 	1.931000	-7.596000	3.496000		! 8 GLY
CA(Fragment=1) 	1.167000	-8.952000	-0.695000		! 7 ASP
H(Fragment=1) 	-0.187000	2.025000	-2.913000		! 14 GLU
CA(Fragment=1) 	-2.489000	-7.868000	-0.165000		! 6 ASN
HB3(Fragment=1) 	-2.003000	-4.831000	2.373000		! 3 ASP
CG(Fragment=1) 	4.171000	-1.397000	-4.162000		! 11 GLU
OD1(Fragment=1) 	-0.535000	-5.387000	-3.324000		! 5 ASN
CH2(Fragment=1) 	9.897000	-4.184000	3.550000		! 9 TRP
CA(Fragment=1) 	4.010000	0.508000	-2.307000		! 11 GLU
CG2(Fragment=1) 	-5.157000	-0.480000	-1.660000		! 4 THR
HA(Fragment=1) 	4.642000	1.289000	-1.898000		! 11 GLU
H(Fragment=1) 	4.483000	-2.281000	2.130000		! 10 ILE
C(Fragment=1) 	3.535000	-3.551000	0.848000		! 9 TRP
HB2(Fragment=1) 	0.651000	0.934000	-0.887000		! 14 GLU
OD2(Fragment=1) 	3.558000	-6.996000	-2.680000		! 7 ASP
HA3(Fragment=1) 	3.167000	-8.741000	2.895000		! 8 GLY
CA(Fragment=1) 	-4.585000	-2.886000	-1.666000		! 4 THR
HG23(Fragment=1) 	2.190000	1.394000	0.891000		! 10 ILE
HD21(Fragment=1) 	-4.058000	-7.557000	2.400000		! 6 ASN
CZ2(Fragment=1) 	9.740000	-5.519000	3.166000		! 9 TRP
N(Fragment=1) 	-0.045000	-8.186000	-0.523000		! 7 ASP
HA(Fragment=1) 	2.167000	-1.346000	0.639000		! 10 ILE
HB3(Fragment=1) 	1.127000	-8.546000	-2.837000		! 7 ASP
O(Fragment=1) 	3.103000	-9.578000	0.581000		! 7 ASP
HA(Fragment=1) 	-2.308000	-7.257000	0.704000		! 6 ASN
N(Fragment=1) 	-2.634000	-6.902000	-1.244000		! 6 ASN
HZ2(Fragment=1) 	10.445000	-6.260000	3.477000		! 9 TRP
C(Fragment=1) 	3.950000	-0.411000	-0.050000		! 10 ILE
CD(Fragment=1) 	3.191000	-2.360000	-3.550000		! 11 GLU
HD13(Fragment=1) 	1.172000	-2.334000	2.422000		! 10 ILE

