%chk=1djg_1.chk

%nproc=8
%mem=16gb
#p Def2TZVP PBE1PBE maxDisk=200 nosymm Counterpoise=2

Counterpoise

! Num Residues = 1
! Residue List = 4:LA, 

3,1 0,1 3,1
LA(Fragment=2) 	90.150000	37.065000	27.719000		! 4 LA
LA(Fragment=2) 	50.949000	38.827000	-43.496000		! 4 LA

