%chk=1djg_5.chk

%nproc=8
%mem=16gb
#p Def2TZVP PBE1PBE maxDisk=200 nosymm Counterpoise=2

Counterpoise

! Num Residues = 5
! Residue List = 708:ASP, 707:TYR, 3:LA, 706:ASP, 653:ASP, 

3,1 0,1 3,1
CA(Fragment=1) 	54.497000	38.231000	-48.877000		! 707 TYR
CA(Fragment=1) 	87.849000	39.673000	23.381000		! 708 ASP
CA(Fragment=1) 	90.281000	33.784000	22.795000		! 706 ASP
CD1(Fragment=1) 	87.289000	38.510000	19.002000		! 707 TYR
C(Fragment=1) 	53.363000	42.684000	-48.588000		! 708 ASP
LA(Fragment=2) 	50.212000	38.096000	-47.003000		! 3 LA
N(Fragment=1) 	55.901000	35.167000	-45.903000		! 706 ASP
C(Fragment=1) 	53.359000	39.192000	-48.486000		! 707 TYR
CA(Fragment=1) 	54.581000	35.478000	-46.344000		! 706 ASP
O(Fragment=1) 	54.548000	43.012000	-48.505000		! 708 ASP
CB(Fragment=1) 	90.532000	33.768000	24.284000		! 706 ASP
CG(Fragment=1) 	52.277000	36.035000	-45.556000		! 706 ASP
LA(Fragment=2) 	86.718000	36.139000	25.559000		! 3 LA
N(Fragment=1) 	50.734000	34.023000	-48.411000		! 653 ASP
OD2(Fragment=1) 	90.631000	38.541000	25.374000		! 708 ASP
OD2(Fragment=1) 	89.356000	34.139000	26.302000		! 706 ASP
CE1(Fragment=1) 	55.335000	41.363000	-52.123000		! 707 TYR
CA(Fragment=1) 	52.836000	41.505000	-47.826000		! 708 ASP
C(Fragment=1) 	52.586000	33.989000	-49.884000		! 653 ASP
OH(Fragment=1) 	85.103000	41.404000	18.716000		! 707 TYR
CD2(Fragment=1) 	53.091000	39.839000	-51.529000		! 707 TYR
C(Fragment=1) 	87.501000	40.922000	22.606000		! 708 ASP
CG(Fragment=1) 	84.163000	34.144000	24.396000		! 653 ASP
OD1(Fragment=1) 	88.233000	34.168000	24.412000		! 706 ASP
OD2(Fragment=1) 	84.471000	35.164000	25.031000		! 653 ASP
O(Fragment=1) 	90.526000	36.148000	22.746000		! 706 ASP
C(Fragment=1) 	86.348000	32.270000	21.861000		! 653 ASP
OD2(Fragment=1) 	51.419000	36.151000	-44.665000		! 706 ASP
OD2(Fragment=1) 	52.856000	40.480000	-44.338000		! 708 ASP
N(Fragment=1) 	53.753000	40.432000	-48.175000		! 708 ASP
CE1(Fragment=1) 	86.787000	39.727000	18.597000		! 707 TYR
CB(Fragment=1) 	88.973000	39.966000	24.373000		! 708 ASP
C(Fragment=1) 	54.719000	36.841000	-46.938000		! 706 ASP
CB(Fragment=1) 	87.166000	36.391000	20.317000		! 707 TYR
CD1(Fragment=1) 	55.465000	40.133000	-51.435000		! 707 TYR
OD1(Fragment=1) 	88.523000	37.928000	25.529000		! 708 ASP
CZ(Fragment=1) 	54.081000	41.814000	-52.490000		! 707 TYR
OD1(Fragment=1) 	51.921000	39.624000	-46.128000		! 708 ASP
CB(Fragment=1) 	50.812000	35.717000	-50.159000		! 653 ASP
CD2(Fragment=1) 	85.394000	38.151000	20.392000		! 707 TYR
OD1(Fragment=1) 	48.578000	35.210000	-49.530000		! 653 ASP
CE2(Fragment=1) 	84.877000	39.380000	20.001000		! 707 TYR
OD1(Fragment=1) 	83.355000	33.292000	24.831000		! 653 ASP
O(Fragment=1) 	86.833000	33.240000	21.289000		! 653 ASP
CG(Fragment=1) 	54.349000	39.357000	-51.132000		! 707 TYR
O(Fragment=1) 	88.276000	41.391000	21.763000		! 708 ASP
CB(Fragment=1) 	84.874000	33.863000	23.084000		! 653 ASP
CA(Fragment=1) 	51.096000	34.263000	-49.797000		! 653 ASP
CE2(Fragment=1) 	52.958000	41.071000	-52.212000		! 707 TYR
OD1(Fragment=1) 	52.026000	36.188000	-46.766000		! 706 ASP
N(Fragment=1) 	88.791000	35.284000	21.670000		! 707 TYR
C(Fragment=1) 	89.873000	35.180000	22.402000		! 706 ASP
CZ(Fragment=1) 	85.586000	40.171000	19.110000		! 707 TYR
N(Fragment=1) 	54.428000	36.949000	-48.210000		! 707 TYR
CG(Fragment=1) 	86.601000	37.702000	19.896000		! 707 TYR
OD2(Fragment=1) 	49.024000	37.284000	-50.145000		! 653 ASP
O(Fragment=1) 	52.166000	38.824000	-48.473000		! 707 TYR
C(Fragment=1) 	87.886000	37.427000	22.401000		! 707 TYR
N(Fragment=1) 	88.255000	38.700000	22.361000		! 708 ASP
N(Fragment=1) 	91.502000	33.508000	22.059000		! 706 ASP
CG(Fragment=1) 	49.369000	36.101000	-49.917000		! 653 ASP
O(Fragment=1) 	53.408000	34.906000	-50.010000		! 653 ASP
CG(Fragment=1) 	89.292000	34.062000	25.058000		! 706 ASP
O(Fragment=1) 	55.028000	37.794000	-46.256000		! 706 ASP
CB(Fragment=1) 	53.646000	35.573000	-45.163000		! 706 ASP
CA(Fragment=1) 	88.339000	36.570000	21.238000		! 707 TYR
CG(Fragment=1) 	89.410000	38.724000	25.151000		! 708 ASP
CG(Fragment=1) 	52.516000	40.547000	-45.540000		! 708 ASP
N(Fragment=1) 	86.201000	32.129000	24.174000		! 653 ASP
O(Fragment=1) 	87.204000	36.958000	23.307000		! 707 TYR
CB(Fragment=1) 	54.491000	38.045000	-50.383000		! 707 TYR
OH(Fragment=1) 	53.957000	43.011000	-53.143000		! 707 TYR
CA(Fragment=1) 	85.382000	32.436000	23.005000		! 653 ASP
CB(Fragment=1) 	52.884000	41.767000	-46.346000		! 708 ASP

