%chk=1nkf_0.chk

%nproc=8
%mem=16gb
#p Def2TZVP PBE1PBE maxDisk=200 nosymm Counterpoise=2

Counterpoise

! Num Residues = 6
! Residue List = 12:GLU, 5:ASP, 3:ASP, 1:ASP, 7:TYR, 18:LA, 

3,1 0,1 3,1
CB(Fragment=1) 	21.944000	66.029000	55.618000		! 3 ASP
OD2(Fragment=1) 	20.372000	67.392000	54.501000		! 3 ASP
HB3(Fragment=1) 	24.993000	68.377000	54.831000		! 5 ASP
HD2(Fragment=1) 	22.486000	70.434000	59.803000		! 7 TYR
H(Fragment=1) 	22.699000	64.111000	57.285000		! 3 ASP
HB3(Fragment=1) 	22.826000	66.524000	55.993000		! 3 ASP
O(Fragment=1) 	28.646000	68.430000	56.875000		! 5 ASP
CA(Fragment=1) 	24.693000	62.935000	60.109000		! 1 ASP
O(Fragment=1) 	23.573000	67.600000	60.092000		! 7 TYR
C(Fragment=1) 	27.696000	67.674000	56.831000		! 5 ASP
CG(Fragment=1) 	23.855000	70.723000	61.441000		! 7 TYR
HH(Fragment=1) 	19.729000	71.759000	63.104000		! 7 TYR
CB(Fragment=1) 	25.063000	70.294000	60.649000		! 7 TYR
HE2(Fragment=1) 	20.495000	71.140000	61.112000		! 7 TYR
CA(Fragment=1) 	22.292000	64.592000	55.224000		! 3 ASP
OD1(Fragment=1) 	23.634000	64.928000	58.670000		! 1 ASP
HA(Fragment=1) 	27.445000	67.740000	54.699000		! 5 ASP
HB3(Fragment=1) 	19.498000	65.723000	62.270000		! 12 GLU
HA(Fragment=1) 	25.939000	68.820000	61.942000		! 7 TYR
CG(Fragment=1) 	21.422000	66.781000	54.393000		! 3 ASP
HB3(Fragment=1) 	26.396000	63.431000	58.901000		! 1 ASP
HB2(Fragment=1) 	25.897000	70.936000	60.890000		! 7 TYR
CG(Fragment=1) 	24.840000	64.856000	58.516000		! 1 ASP
OD2(Fragment=1) 	25.454000	65.461000	57.655000		! 1 ASP
HG2(Fragment=1) 	20.111000	64.003000	60.751000		! 12 GLU
C(Fragment=1) 	18.351000	63.736000	63.296000		! 12 GLU
H(Fragment=1) 	16.768000	66.356000	62.908000		! 12 GLU
LA(Fragment=2) 	22.230000	66.842000	58.216000		! 18 LA
O(Fragment=1) 	24.552000	61.210000	58.450000		! 1 ASP
HG3(Fragment=1) 	18.664000	64.247000	59.770000		! 12 GLU
N(Fragment=1) 	26.264000	66.179000	55.490000		! 5 ASP
CB(Fragment=1) 	18.750000	65.462000	61.538000		! 12 GLU
CD1(Fragment=1) 	24.000000	71.104000	62.776000		! 7 TYR
N(Fragment=1) 	26.302000	68.303000	59.935000		! 7 TYR
OH(Fragment=1) 	20.509000	71.906000	63.644000		! 7 TYR
HB2(Fragment=1) 	21.183000	66.017000	56.385000		! 3 ASP
CG(Fragment=1) 	24.986000	68.480000	56.973000		! 5 ASP
CA(Fragment=1) 	25.420000	68.846000	60.996000		! 7 TYR
OD1(Fragment=1) 	24.243000	67.532000	57.162000		! 5 ASP
O(Fragment=1) 	23.783000	65.042000	53.402000		! 3 ASP
C(Fragment=1) 	23.987000	62.121000	59.022000		! 1 ASP
N(Fragment=1) 	22.352000	63.742000	56.447000		! 3 ASP
H(Fragment=1) 	26.134000	68.536000	59.002000		! 7 TYR
CA(Fragment=1) 	26.835000	67.553000	55.570000		! 5 ASP
CE1(Fragment=1) 	22.880000	71.501000	63.516000		! 7 TYR
OE1(Fragment=1) 	20.688000	66.704000	60.078000		! 12 GLU
HD1(Fragment=1) 	24.979000	71.092000	63.235000		! 7 TYR
CD(Fragment=1) 	20.168000	65.755000	59.510000		! 12 GLU
CA(Fragment=1) 	17.700000	64.557000	62.181000		! 12 GLU
HB2(Fragment=1) 	26.104000	69.572000	55.501000		! 5 ASP
CB(Fragment=1) 	25.634000	63.952000	59.460000		! 1 ASP
H(Fragment=1) 	25.625000	65.875000	56.169000		! 5 ASP
OD1(Fragment=1) 	22.082000	66.732000	53.367000		! 3 ASP
C(Fragment=1) 	24.145000	68.001000	61.089000		! 7 TYR
HA(Fragment=1) 	17.288000	63.894000	61.436000		! 12 GLU
N(Fragment=1) 	25.483000	62.020000	60.981000		! 1 ASP
CD2(Fragment=1) 	22.593000	70.734000	60.838000		! 7 TYR
N(Fragment=1) 	16.616000	65.399000	62.758000		! 12 GLU
CE2(Fragment=1) 	21.471000	71.130000	61.575000		! 7 TYR
HE1(Fragment=1) 	22.990000	71.796000	64.548000		! 7 TYR
HB2(Fragment=1) 	18.274000	66.360000	61.177000		! 12 GLU
H(Fragment=1) 	26.443000	62.172000	61.108000		! 1 ASP
O(Fragment=1) 	18.374000	62.522000	63.253000		! 12 GLU
HA(Fragment=1) 	23.957000	63.454000	60.706000		! 1 ASP
HB2(Fragment=1) 	26.098000	64.553000	60.229000		! 1 ASP
C(Fragment=1) 	23.648000	64.571000	54.514000		! 3 ASP
CZ(Fragment=1) 	21.614000	71.514000	62.915000		! 7 TYR
OE2(Fragment=1) 	20.208000	65.575000	58.301000		! 12 GLU
OD2(Fragment=1) 	25.197000	69.356000	57.795000		! 5 ASP
CB(Fragment=1) 	25.698000	68.578000	55.624000		! 5 ASP
HA(Fragment=1) 	21.533000	64.209000	54.558000		! 3 ASP
HB3(Fragment=1) 	24.846000	70.369000	59.594000		! 7 TYR
CG(Fragment=1) 	19.417000	64.737000	60.369000		! 12 GLU

