%chk=5ytq_0.chk

%nproc=8
%mem=16gb
#p Def2TZVP PBE1PBE maxDisk=200 nosymm Counterpoise=2

Counterpoise

! Num Residues = 1
! Residue List = 101:LA, 

3,1 0,1 3,1
LA(Fragment=2) 	15.478000	18.932000	11.672000		! 101 LA
LA(Fragment=2) 	-11.991000	48.055000	23.235000		! 101 LA
LA(Fragment=2) 	-16.424000	26.858000	-4.053000		! 101 LA

