%chk=5ytq_1.chk

%nproc=8
%mem=16gb
#p Def2TZVP PBE1PBE maxDisk=200 nosymm Counterpoise=2

Counterpoise

! Num Residues = 4
! Residue List = 15:GLU, 16:GLU, 101:LA, 5:GLU, 

3,1 0,1 3,1
CB(Fragment=1) 	-8.557000	47.836000	18.831000		! 16 GLU
CB(Fragment=1) 	-21.283000	27.662000	-3.691000		! 5 GLU
OE1(Fragment=1) 	-10.496000	47.628000	20.767000		! 16 GLU
CA(Fragment=1) 	13.567000	23.298000	21.392000		! 16 GLU
LA(Fragment=2) 	-11.991000	48.055000	23.235000		! 101 LA
N(Fragment=1) 	-10.861000	48.232000	18.070000		! 16 GLU
LA(Fragment=2) 	-16.424000	26.858000	-4.053000		! 101 LA
O(Fragment=1) 	14.179000	22.133000	23.404000		! 16 GLU
CA(Fragment=1) 	-13.078000	26.171000	0.945000		! 16 GLU
OE2(Fragment=1) 	11.660000	27.353000	17.625000		! 15 GLU
OE1(Fragment=1) 	-14.319000	27.158000	-2.035000		! 16 GLU
O(Fragment=1) 	-19.446000	29.222000	-1.835000		! 5 GLU
CG(Fragment=1) 	-12.715000	25.478000	-1.493000		! 16 GLU
O(Fragment=1) 	-15.942000	47.263000	21.117000		! 5 GLU
CB(Fragment=1) 	-17.645000	25.629000	0.840000		! 15 GLU
CD(Fragment=1) 	13.249000	23.592000	17.973000		! 16 GLU
LA(Fragment=2) 	15.478000	18.932000	11.672000		! 101 LA
C(Fragment=1) 	-20.510000	28.659000	-1.553000		! 5 GLU
OE1(Fragment=1) 	13.343000	28.328000	18.648000		! 15 GLU
C(Fragment=1) 	-15.382000	26.277000	1.701000		! 15 GLU
OE2(Fragment=1) 	-19.013000	52.899000	22.361000		! 5 GLU
CD(Fragment=1) 	12.301000	27.637000	18.659000		! 15 GLU
C(Fragment=1) 	-17.007000	47.863000	20.944000		! 5 GLU
OE2(Fragment=1) 	-19.694000	24.646000	-4.785000		! 5 GLU
O(Fragment=1) 	-15.092000	25.696000	2.755000		! 15 GLU
CA(Fragment=1) 	-17.263000	49.248000	21.539000		! 5 GLU
CD(Fragment=1) 	-17.249000	25.448000	-1.665000		! 15 GLU
CD(Fragment=1) 	-9.548000	48.379000	21.080000		! 16 GLU
N(Fragment=1) 	13.683000	24.723000	21.096000		! 16 GLU
CG(Fragment=1) 	-17.566000	51.703000	20.901000		! 5 GLU
CA(Fragment=1) 	-20.850000	27.349000	-2.250000		! 5 GLU
C(Fragment=1) 	14.529000	22.905000	22.503000		! 16 GLU
OE2(Fragment=1) 	-12.072000	50.092000	21.707000		! 15 GLU
O(Fragment=1) 	12.812000	25.295000	23.092000		! 15 GLU
CA(Fragment=1) 	-9.458000	48.247000	17.667000		! 16 GLU
C(Fragment=1) 	-11.787000	48.803000	17.293000		! 15 GLU
O(Fragment=1) 	-11.740000	26.397000	2.926000		! 16 GLU
C(Fragment=1) 	-9.225000	47.329000	16.476000		! 16 GLU
N(Fragment=1) 	-14.480000	26.522000	0.747000		! 16 GLU
OE2(Fragment=1) 	-14.034000	25.532000	-3.482000		! 16 GLU
OE2(Fragment=1) 	12.605000	23.638000	16.904000		! 16 GLU
OE1(Fragment=1) 	-18.848000	26.672000	-4.749000		! 5 GLU
CB(Fragment=1) 	-17.444000	50.270000	20.418000		! 5 GLU
OE2(Fragment=1) 	-16.951000	24.765000	-2.668000		! 15 GLU
N(Fragment=1) 	-21.862000	26.547000	-1.575000		! 5 GLU
CG(Fragment=1) 	-12.809000	50.424000	19.471000		! 15 GLU
CD(Fragment=1) 	-13.764000	26.100000	-2.402000		! 16 GLU
N(Fragment=1) 	-16.177000	49.649000	22.418000		! 5 GLU
CA(Fragment=1) 	-16.808000	26.753000	1.458000		! 15 GLU
CB(Fragment=1) 	-13.771000	49.836000	18.446000		! 15 GLU
CG(Fragment=1) 	-16.965000	24.866000	-0.294000		! 15 GLU
N(Fragment=1) 	14.827000	27.254000	20.897000		! 15 GLU
N(Fragment=1) 	-16.838000	27.938000	0.607000		! 15 GLU
CD(Fragment=1) 	-19.820000	25.887000	-4.730000		! 5 GLU
N(Fragment=1) 	-13.443000	47.400000	18.456000		! 15 GLU
OE1(Fragment=1) 	-13.486000	48.629000	20.889000		! 15 GLU
OE1(Fragment=1) 	14.233000	24.326000	18.208000		! 16 GLU
CA(Fragment=1) 	-13.250000	48.618000	17.678000		! 15 GLU
CB(Fragment=1) 	13.839000	22.453000	20.145000		! 16 GLU
CG(Fragment=1) 	11.773000	27.138000	19.992000		! 15 GLU
CG(Fragment=1) 	-8.567000	48.792000	20.006000		! 16 GLU
CG(Fragment=1) 	-21.219000	26.463000	-4.621000		! 5 GLU
OE2(Fragment=1) 	-9.362000	48.796000	22.240000		! 16 GLU
C(Fragment=1) 	13.356000	25.622000	22.032000		! 15 GLU
CB(Fragment=1) 	12.446000	27.816000	21.172000		! 15 GLU
CD(Fragment=1) 	-18.922000	51.994000	21.505000		! 5 GLU
OE1(Fragment=1) 	-19.897000	51.314000	21.121000		! 5 GLU
OE1(Fragment=1) 	-17.771000	26.579000	-1.742000		! 15 GLU
CA(Fragment=1) 	13.662000	27.092000	21.761000		! 15 GLU
CD(Fragment=1) 	-12.788000	49.658000	20.781000		! 15 GLU
CB(Fragment=1) 	-12.302000	26.402000	-0.352000		! 16 GLU
CG(Fragment=1) 	12.822000	22.592000	19.027000		! 16 GLU
O(Fragment=1) 	-8.434000	47.651000	15.583000		! 16 GLU
C(Fragment=1) 	-12.465000	26.960000	2.096000		! 16 GLU
O(Fragment=1) 	-11.492000	49.457000	16.286000		! 15 GLU

