%chk=6oc6_0.chk

%nproc=8
%mem=16gb
#p Def2TZVP PBE1PBE maxDisk=200 nosymm Counterpoise=2

Counterpoise

! Num Residues = 6
! Residue List = 320:ASP, 318:ASP, 701:LA, 192:GLU, 702:PQQ, 276:ASN, 

3,1 0,1 3,1
C3(Fragment=1) 	-29.239000	29.332000	-11.178000		! 702 PQQ
O(Fragment=1) 	-39.353000	37.111000	-10.273000		! 192 GLU
O2B(Fragment=1) 	-27.561000	27.854000	-13.231000		! 702 PQQ
CG(Fragment=1) 	-27.442000	26.522000	-60.509000		! 318 ASP
C3A(Fragment=1) 	-23.985000	26.263000	-53.823000		! 702 PQQ
C(Fragment=1) 	-30.611000	34.422000	-57.996000		! 192 GLU
O9B(Fragment=1) 	-35.456000	27.512000	-12.537000		! 702 PQQ
ND2(Fragment=1) 	-36.540000	34.044000	-4.516000		! 276 ASN
C8(Fragment=1) 	-23.742000	31.091000	-54.566000		! 702 PQQ
C(Fragment=1) 	-37.866000	32.057000	-1.778000		! 276 ASN
N(Fragment=1) 	-23.353000	30.552000	-62.804000		! 276 ASN
C9X(Fragment=1) 	-23.007000	30.675000	-52.533000		! 702 PQQ
C(Fragment=1) 	-25.817000	24.902000	-62.509000		! 318 ASP
O9A(Fragment=1) 	-33.345000	27.492000	-13.094000		! 702 PQQ
O(Fragment=1) 	-30.309000	32.885000	-3.269000		! 318 ASP
C9A(Fragment=1) 	-32.841000	29.292000	-10.498000		! 702 PQQ
C1A(Fragment=1) 	-31.455000	29.092000	-11.081000		! 702 PQQ
O7A(Fragment=1) 	-24.511000	31.606000	-58.180000		! 702 PQQ
N6(Fragment=1) 	-34.279000	30.226000	-8.834000		! 702 PQQ
N(Fragment=1) 	-31.562000	35.449000	-1.356000		! 318 ASP
CB(Fragment=1) 	-31.830000	35.171000	-3.796000		! 318 ASP
O2A(Fragment=1) 	-22.788000	24.382000	-50.108000		! 702 PQQ
OD2(Fragment=1) 	-34.412000	29.511000	-5.528000		! 320 ASP
O5(Fragment=1) 	-31.944000	31.331000	-7.685000		! 702 PQQ
C(Fragment=1) 	-32.053000	27.573000	-2.044000		! 320 ASP
O7A(Fragment=1) 	-37.712000	30.053000	-9.192000		! 702 PQQ
N6(Fragment=1) 	-24.574000	29.704000	-56.337000		! 702 PQQ
CB(Fragment=1) 	-28.052000	25.786000	-61.695000		! 318 ASP
ND2(Fragment=1) 	-27.530000	30.872000	-62.323000		! 276 ASN
O9B(Fragment=1) 	-22.612000	29.974000	-51.564000		! 702 PQQ
N1(Fragment=1) 	-23.192000	27.436000	-52.091000		! 702 PQQ
OD1(Fragment=1) 	-36.487000	31.846000	-4.971000		! 276 ASN
CA(Fragment=1) 	-31.908000	34.499000	-2.416000		! 318 ASP
C3(Fragment=1) 	-23.698000	25.384000	-52.828000		! 702 PQQ
O4(Fragment=1) 	-29.581000	30.976000	-8.680000		! 702 PQQ
C4(Fragment=1) 	-24.537000	26.087000	-55.212000		! 702 PQQ
C9X(Fragment=1) 	-34.265000	27.859000	-12.319000		! 702 PQQ
O4(Fragment=1) 	-24.807000	25.002000	-55.609000		! 702 PQQ
CB(Fragment=1) 	-32.632000	28.762000	-4.161000		! 320 ASP
CA(Fragment=1) 	-38.288000	35.372000	-9.035000		! 192 GLU
C6A(Fragment=1) 	-33.021000	30.065000	-9.338000		! 702 PQQ
OD1(Fragment=1) 	-25.728000	30.855000	-60.985000		! 276 ASN
CG(Fragment=1) 	-33.485000	29.846000	-4.763000		! 320 ASP
CA(Fragment=1) 	-21.671000	26.769000	-61.585000		! 320 ASP
N(Fragment=1) 	-27.751000	25.043000	-64.038000		! 318 ASP
CA(Fragment=1) 	-36.446000	31.538000	-2.010000		! 276 ASN
LA(Fragment=2) 	-25.678000	29.213000	-58.797000		! 701 LA
O7B(Fragment=1) 	-36.495000	30.339000	-7.418000		! 702 PQQ
N(Fragment=1) 	-28.355000	33.461000	-58.347000		! 192 GLU
O(Fragment=1) 	-31.809000	34.305000	-57.722000		! 192 GLU
CG(Fragment=1) 	-29.880000	30.681000	-57.735000		! 192 GLU
CA(Fragment=1) 	-29.783000	33.180000	-58.290000		! 192 GLU
C8(Fragment=1) 	-35.176000	28.897000	-10.607000		! 702 PQQ
CG(Fragment=1) 	-35.732000	35.558000	-9.172000		! 192 GLU
C(Fragment=1) 	-39.478000	35.999000	-9.749000		! 192 GLU
C7X(Fragment=1) 	-36.588000	30.041000	-8.634000		! 702 PQQ
CA(Fragment=1) 	-24.450000	30.316000	-63.727000		! 276 ASN
C2(Fragment=1) 	-23.205000	26.110000	-51.747000		! 702 PQQ
CB(Fragment=1) 	-35.656000	32.550000	-2.832000		! 276 ASN
O(Fragment=1) 	-19.723000	25.417000	-61.189000		! 320 ASP
OD1(Fragment=1) 	-24.191000	27.562000	-60.355000		! 320 ASP
C7X(Fragment=1) 	-24.573000	31.946000	-56.972000		! 702 PQQ
C9(Fragment=1) 	-23.560000	29.993000	-53.781000		! 702 PQQ
C2X(Fragment=1) 	-28.811000	27.913000	-13.350000		! 702 PQQ
CG(Fragment=1) 	-26.295000	30.494000	-62.016000		! 276 ASN
O7B(Fragment=1) 	-24.889000	33.126000	-56.670000		! 702 PQQ
CD(Fragment=1) 	-28.450000	30.394000	-58.137000		! 192 GLU
C9A(Fragment=1) 	-23.876000	28.751000	-54.254000		! 702 PQQ
OE2(Fragment=1) 	-27.570000	30.441000	-57.253000		! 192 GLU
CG(Fragment=1) 	-36.264000	32.785000	-4.203000		! 276 ASN
C4(Fragment=1) 	-30.518000	30.487000	-9.213000		! 702 PQQ
O9A(Fragment=1) 	-22.953000	31.932000	-52.469000		! 702 PQQ
C9(Fragment=1) 	-33.922000	28.725000	-11.112000		! 702 PQQ
OD2(Fragment=1) 	-27.352000	25.913000	-59.419000		! 318 ASP
N(Fragment=1) 	-22.612000	25.707000	-61.938000		! 320 ASP
O2B(Fragment=1) 	-22.295000	26.434000	-49.541000		! 702 PQQ
OD1(Fragment=1) 	-27.062000	27.705000	-60.660000		! 318 ASP
CB(Fragment=1) 	-25.594000	29.602000	-63.017000		! 276 ASN
OD1(Fragment=1) 	-33.227000	31.030000	-4.462000		! 320 ASP
CG(Fragment=1) 	-32.221000	34.240000	-4.934000		! 318 ASP
CB(Fragment=1) 	-37.048000	35.497000	-9.923000		! 192 GLU
OD2(Fragment=1) 	-31.393000	34.051000	-5.854000		! 318 ASP
CA(Fragment=1) 	-27.090000	25.668000	-62.886000		! 318 ASP
C6A(Fragment=1) 	-24.398000	28.603000	-55.550000		! 702 PQQ
O(Fragment=1) 	-25.633000	24.461000	-61.373000		! 318 ASP
C7(Fragment=1) 	-35.354000	29.659000	-9.446000		! 702 PQQ
OD2(Fragment=1) 	-23.000000	29.098000	-59.324000		! 320 ASP
C(Fragment=1) 	-24.956000	31.633000	-64.313000		! 276 ASN
N1(Fragment=1) 	-31.021000	28.407000	-12.176000		! 702 PQQ
O(Fragment=1) 	-38.760000	31.847000	-2.601000		! 276 ASN
CG(Fragment=1) 	-23.110000	28.005000	-59.917000		! 320 ASP
C2X(Fragment=1) 	-22.735000	25.609000	-50.385000		! 702 PQQ
C5(Fragment=1) 	-31.828000	30.680000	-8.664000		! 702 PQQ
OE2(Fragment=1) 	-34.978000	33.317000	-9.002000		! 192 GLU
C1A(Fragment=1) 	-23.659000	27.543000	-53.366000		! 702 PQQ
N(Fragment=1) 	-36.452000	30.253000	-2.683000		! 276 ASN
LA(Fragment=2) 	-34.403000	31.935000	-6.739000		! 701 LA
N(Fragment=1) 	-38.515000	33.979000	-8.679000		! 192 GLU
C(Fragment=1) 	-31.018000	33.254000	-2.331000		! 318 ASP
CD(Fragment=1) 	-35.448000	34.299000	-8.389000		! 192 GLU
O5(Fragment=1) 	-25.172000	27.088000	-57.150000		! 702 PQQ
C3A(Fragment=1) 	-30.339000	29.666000	-10.459000		! 702 PQQ
OE1(Fragment=1) 	-35.703000	34.293000	-7.168000		! 192 GLU
O2A(Fragment=1) 	-29.365000	27.450000	-14.378000		! 702 PQQ
O(Fragment=1) 	-30.971000	27.070000	-2.356000		! 320 ASP
O(Fragment=1) 	-24.940000	32.667000	-63.642000		! 276 ASN
C2(Fragment=1) 	-29.657000	28.548000	-12.249000		! 702 PQQ
CA(Fragment=1) 	-32.501000	28.896000	-2.646000		! 320 ASP
C5(Fragment=1) 	-24.738000	27.232000	-56.057000		! 702 PQQ
CB(Fragment=1) 	-21.871000	27.173000	-60.123000		! 320 ASP
N(Fragment=1) 	-31.579000	29.983000	-2.318000		! 320 ASP
OD1(Fragment=1) 	-33.349000	33.707000	-4.918000		! 318 ASP
C(Fragment=1) 	-20.222000	26.361000	-61.811000		! 320 ASP
CB(Fragment=1) 	-30.072000	32.105000	-57.239000		! 192 GLU
OE1(Fragment=1) 	-28.209000	30.128000	-59.332000		! 192 GLU
C7(Fragment=1) 	-24.255000	30.943000	-55.864000		! 702 PQQ

